c Sudoku solution
p cnf 729 0
159 0
164 0
176 0
232 0
248 0
256 0
299 0
363 0
384 0
398 0
439 0
491 0
531 0
543 0
567 0
627 0
634 0
675 0
718 0
138 0
774 0
594 0
782 0
829 0
319 0
833 0
844 0
454 0
858 0
957 0
753 0
265 0
555 0
442 0
651 0
192 0
185 0
352 0
572 0
516 0
528 0
612 0
589 0
862 0
922 0
914 0
224 0
979 0
988 0
993 0
961 0
721 0
123 0
413 0
425 0
815 0
936 0
737 0
795 0
945 0
326 0
335 0
273 0
478 0
487 0
466 0
649 0
668 0
746 0
769 0
683 0
696 0
886 0
871 0
897 0
377 0
281 0
217 0
111 0
147 0
341 0
